32      4       
10      10      10      10      
0       0       0       0       0       14      2       3       4       5       6       7       8       9       10      16      17      18      30      31      
8       1       0       1       1       5       12      13      20      23      25      
8       3       0       4       3       3       13      15      23      
9       0       1       2       3       3       11      19      21      
6       3       0       10      4       4       19      20      21      22      
4       5       0       2       3       3       14      20      26      
6       6       3       3       0       3       13      20      26      
2       2       4       5       0       3       13      20      22      
9       0       5       5       3       3       19      22      25      
1       4       3       7       0       2       13      24      
4       0       3       4       3       2       24      29      
4       3       0       4       5       2       22      28      
8       5       1       0       2       1       19      
1       4       5       3       0       1       27      
6       4       5       2       0       1       21      
6       6       7       0       4       1       23      
4       6       0       3       4       1       21      
4       2       0       4       4       1       20      
5       1       4       0       4       1       32      
6       9       0       3       3       1       32      
8       6       0       5       5       1       32      
9       0       2       4       4       1       32      
7       2       0       2       6       1       32      
2       4       0       5       2       1       32      
6       0       4       4       4       1       32      
1       0       5       7       4       1       32      
1       4       5       5       0       1       32      
7       0       4       2       6       1       32      
4       0       7       1       6       1       32      
3       7       0       5       6       1       32      
3       1       0       6       7       1       32      
0       0       0       0       0       0       
